m = 9; 
n = 11; 
min_k = 1; 
max_k = 1; 
test_scale_rows_only = 0 ; 

A = [|-139,-80,-103,-87,-101,-73,-168,-102,-172,-77,0|-50,-221,-170,-211,-44,-8,-93,-74,-91,-152,-1042|-111,-235,-233,-31,-130,-123,-84,-207,-57,-216,-1237|-224,-84,-119,-77,-124,-174,-127,-121,-167,-100,-1294|-222,-7,-26,-91,-231,-29,-221,-135,-121,-203,-1091|-165,-134,-148,-150,-170,-217,0,-159,-92,-102,-1338|-200,-154,-84,-95,-222,-64,-39,-216,-186,-36,-1208|-242,-158,-209,-155,-28,-200,-198,-198,-59,-139,-1471|-30,-216,-76,-24,-246,-162,-184,-163,-21,-102,-1116|];

lowerBoundsMatA = [|10,0,0,0,0,0,0,0,0,0,0|0,10,0,0,0,0,0,0,0,0,0|0,0,10,0,0,0,0,0,0,0,0|0,0,0,10,0,0,0,0,0,0,0|0,0,0,0,10,0,0,0,0,0,0|0,0,0,0,0,10,0,0,0,0,0|0,0,0,0,0,0,10,0,0,0,0|0,0,0,0,0,0,0,10,0,0,0|0,0,0,0,0,0,0,0,10,0,0|0,0,0,0,0,0,0,0,0,10,0|];

upperBoundsMatA = [|-10,0,0,0,0,0,0,0,0,0,-10|0,-10,0,0,0,0,0,0,0,0,-10|0,0,-10,0,0,0,0,0,0,0,-10|0,0,0,-10,0,0,0,0,0,0,-10|0,0,0,0,-10,0,0,0,0,0,-10|0,0,0,0,0,-10,0,0,0,0,-10|0,0,0,0,0,0,-10,0,0,0,-10|0,0,0,0,0,0,0,-10,0,0,-10|0,0,0,0,0,0,0,0,-10,0,-10|0,0,0,0,0,0,0,0,0,-10,-10|];

B = [|-139,-80,-168,-172,-101,-102,-103,-73,-87,-77,0|-224,-84,-127,-167,-124,-121,-119,-174,-77,-100,-1294|-242,-158,-198,-59,-28,-198,-209,-200,-155,-139,-1471|-50,-221,-93,-91,-44,-74,-170,-8,-211,-152,-1042|-222,-7,-221,-121,-231,-135,-26,-29,-91,-203,-1091|-200,-154,-39,-186,-222,-216,-84,-64,-95,-36,-1208|-165,-134,0,-92,-170,-159,-148,-217,-150,-102,-1338|-111,-235,-84,-57,-130,-207,-233,-123,-31,-216,-1237|-30,-216,-184,-21,-246,-163,-76,-162,-24,-102,-1116|];

lowerBoundsMatB = [|10,0,0,0,0,0,0,0,0,0,0|0,10,0,0,0,0,0,0,0,0,0|0,0,10,0,0,0,0,0,0,0,0|0,0,0,10,0,0,0,0,0,0,0|0,0,0,0,10,0,0,0,0,0,0|0,0,0,0,0,10,0,0,0,0,0|0,0,0,0,0,0,10,0,0,0,0|0,0,0,0,0,0,0,10,0,0,0|0,0,0,0,0,0,0,0,10,0,0|0,0,0,0,0,0,0,0,0,10,0|];

upperBoundsMatB = [|-10,0,0,0,0,0,0,0,0,0,-10|0,-10,0,0,0,0,0,0,0,0,-10|0,0,-10,0,0,0,0,0,0,0,-10|0,0,0,-10,0,0,0,0,0,0,-10|0,0,0,0,-10,0,0,0,0,0,-10|0,0,0,0,0,-10,0,0,0,0,-10|0,0,0,0,0,0,-10,0,0,0,-10|0,0,0,0,0,0,0,-10,0,0,-10|0,0,0,0,0,0,0,0,-10,0,-10|0,0,0,0,0,0,0,0,0,-10,-10|];

